(set-option :auto_config false)
(set-option :smt.mbqi false)
(set-option :smt.case_split 3)
(set-option :smt.qi.eager_threshold 100.0)
(set-option :smt.delay_units true)
(set-option :smt.arith.solver 2)
(set-option :smt.arith.nl false)
(set-info :comment ";; Prelude")
(set-info :comment ";; AIR prelude")
(declare-sort %%Function%% 0)
(declare-sort FuelId 0)
(declare-sort Fuel 0)
(declare-const zero Fuel)
(declare-fun succ (Fuel) Fuel)
(declare-fun fuel_bool (FuelId) Bool)
(declare-fun fuel_bool_default (FuelId) Bool)
(declare-const fuel_defaults Bool)
(assert (=> fuel_defaults (forall ((id FuelId)) (! (= (fuel_bool id) (fuel_bool_default id)) :pattern ((fuel_bool id)) :qid prelude_fuel_defaults :skolemid skolem_prelude_fuel_defaults))))
(declare-sort Char 0)
(declare-fun char%from_unicode (Int) Char)
(declare-fun char%to_unicode (Char) Int)
(declare-sort StrSlice 0)
(declare-fun str%strslice_is_ascii (StrSlice) Bool)
(declare-fun str%strslice_len (StrSlice) Int)
(declare-fun str%strslice_get_char (StrSlice Int) Char)
(declare-fun str%new_strlit (Int) StrSlice)
(declare-fun str%from_strlit (StrSlice) Int)
(declare-sort Poly 0)
(declare-sort Height 0)
(declare-fun I (Int) Poly)
(declare-fun B (Bool) Poly)
(declare-fun %I (Poly) Int)
(declare-fun %B (Poly) Bool)
(declare-fun S (StrSlice) Poly)
(declare-fun %S (Poly) StrSlice)
(declare-fun C (Char) Poly)
(declare-fun %C (Poly) Char)
(declare-sort Type 0)
(declare-const BOOL Type)
(declare-const INT Type)
(declare-const NAT Type)
(declare-const STRSLICE Type)
(declare-const CHAR Type)
(declare-fun UINT (Int) Type)
(declare-fun SINT (Int) Type)
(declare-fun CONST_INT (Int) Type)
(declare-sort Dcr 0)
(declare-const $ Dcr)
(declare-fun REF (Dcr) Dcr)
(declare-fun MUT_REF (Dcr) Dcr)
(declare-fun BOX (Dcr) Dcr)
(declare-fun RC (Dcr) Dcr)
(declare-fun ARC (Dcr) Dcr)
(declare-fun GHOST (Dcr) Dcr)
(declare-fun TRACKED (Dcr) Dcr)
(declare-fun NEVER (Dcr) Dcr)
(declare-fun ARRAY (Dcr Type Dcr Type) Type)
(declare-fun SLICE (Dcr Type) Type)
(declare-fun has_type (Poly Type) Bool)
(declare-fun as_type (Poly Type) Poly)
(declare-fun mk_fun (%%Function%%) %%Function%%)
(declare-fun const_int (Type) Int)
(assert (forall ((i Int)) (! (= i (const_int (CONST_INT i))) :pattern ((CONST_INT i)) :qid prelude_type_id_const_int :skolemid skolem_prelude_type_id_const_int)))
(assert (forall ((b Bool)) (! (has_type (B b) BOOL) :pattern ((has_type (B b) BOOL)) :qid prelude_has_type_bool :skolemid skolem_prelude_has_type_bool)))
(assert (forall ((x Poly) (t Type)) (! (and (has_type (as_type x t) t) (=> (has_type x t) (= x (as_type x t)))) :pattern ((as_type x t)) :qid prelude_as_type :skolemid skolem_prelude_as_type)))
(assert (forall ((x %%Function%%)) (! (= (mk_fun x) x) :pattern ((mk_fun x)) :qid prelude_mk_fun :skolemid skolem_prelude_mk_fun)))
(assert (forall ((x Bool)) (! (= x (%B (B x))) :pattern ((B x)) :qid prelude_unbox_box_bool :skolemid skolem_prelude_unbox_box_bool)))
(assert (forall ((x Int)) (! (= x (%I (I x))) :pattern ((I x)) :qid prelude_unbox_box_int :skolemid skolem_prelude_unbox_box_int)))
(assert (forall ((x Poly)) (! (=> (has_type x BOOL) (= x (B (%B x)))) :pattern ((has_type x BOOL)) :qid prelude_box_unbox_bool :skolemid skolem_prelude_box_unbox_bool)))
(assert (forall ((x Poly)) (! (=> (has_type x INT) (= x (I (%I x)))) :pattern ((has_type x INT)) :qid prelude_box_unbox_int :skolemid skolem_prelude_box_unbox_int)))
(assert (forall ((x Poly)) (! (=> (has_type x NAT) (= x (I (%I x)))) :pattern ((has_type x NAT)) :qid prelude_box_unbox_nat :skolemid skolem_prelude_box_unbox_nat)))
(assert (forall ((bits Int) (x Poly)) (! (=> (has_type x (UINT bits)) (= x (I (%I x)))) :pattern ((has_type x (UINT bits))) :qid prelude_box_unbox_uint :skolemid skolem_prelude_box_unbox_uint)))
(assert (forall ((bits Int) (x Poly)) (! (=> (has_type x (SINT bits)) (= x (I (%I x)))) :pattern ((has_type x (SINT bits))) :qid prelude_box_unbox_sint :skolemid skolem_prelude_box_unbox_sint)))
(assert (forall ((x Int)) (! (= (str%from_strlit (str%new_strlit x)) x) :pattern ((str%new_strlit x)) :qid prelude_strlit_injective :skolemid skolem_prelude_strlit_injective)))
(assert (forall ((x Poly)) (! (=> (has_type x STRSLICE) (= x (S (%S x)))) :pattern ((has_type x STRSLICE)) :qid prelude_box_unbox_strslice :skolemid skolem_prelude_box_unbox_strslice)))
(assert (forall ((x StrSlice)) (! (= x (%S (S x))) :pattern ((S x)) :qid prelude_unbox_box_strslice :skolemid skolem_prelude_unbox_box_strslice)))
(assert (forall ((x StrSlice)) (! (has_type (S x) STRSLICE) :pattern ((has_type (S x) STRSLICE)) :qid prelude_has_type_strslice :skolemid skolem_prelude_has_type_strslice)))
(declare-fun ext_eq (Bool Type Poly Poly) Bool)
(assert (forall ((deep Bool) (t Type) (x Poly) (y Poly)) (! (= (= x y) (ext_eq deep t x y)) :pattern ((ext_eq deep t x y)) :qid prelude_ext_eq :skolemid skolem_prelude_ext_eq)))
(declare-const SZ Int)
(assert (or (= SZ 32) (= SZ 64)))
(declare-fun uHi (Int) Int)
(declare-fun iLo (Int) Int)
(declare-fun iHi (Int) Int)
(assert (= (uHi 8) 256))
(assert (= (uHi 16) 65536))
(assert (= (uHi 32) 4294967296))
(assert (= (uHi 64) 18446744073709551616))
(assert (= (uHi 128) (+ 1 340282366920938463463374607431768211455)))
(assert (= (iLo 8) (- 128)))
(assert (= (iLo 16) (- 32768)))
(assert (= (iLo 32) (- 2147483648)))
(assert (= (iLo 64) (- 9223372036854775808)))
(assert (= (iLo 128) (- 170141183460469231731687303715884105728)))
(assert (= (iHi 8) 128))
(assert (= (iHi 16) 32768))
(assert (= (iHi 32) 2147483648))
(assert (= (iHi 64) 9223372036854775808))
(assert (= (iHi 128) 170141183460469231731687303715884105728))
(declare-fun nClip (Int) Int)
(declare-fun uClip (Int Int) Int)
(declare-fun iClip (Int Int) Int)
(assert (forall ((i Int)) (! (and (<= 0 (nClip i)) (=> (<= 0 i) (= i (nClip i)))) :pattern ((nClip i)) :qid prelude_nat_clip :skolemid skolem_prelude_nat_clip)))
(assert (forall ((bits Int) (i Int)) (! (and (<= 0 (uClip bits i)) (< (uClip bits i) (uHi bits)) (=> (and (<= 0 i) (< i (uHi bits))) (= i (uClip bits i)))) :pattern ((uClip bits i)) :qid prelude_u_clip :skolemid skolem_prelude_u_clip)))
(assert (forall ((bits Int) (i Int)) (! (and (<= (iLo bits) (iClip bits i)) (< (iClip bits i) (iHi bits)) (=> (and (<= (iLo bits) i) (< i (iHi bits))) (= i (iClip bits i)))) :pattern ((iClip bits i)) :qid prelude_i_clip :skolemid skolem_prelude_i_clip)))
(declare-fun uInv (Int Int) Bool)
(declare-fun iInv (Int Int) Bool)
(assert (forall ((bits Int) (i Int)) (! (= (uInv bits i) (and (<= 0 i) (< i (uHi bits)))) :pattern ((uInv bits i)) :qid prelude_u_inv :skolemid skolem_prelude_u_inv)))
(assert (forall ((bits Int) (i Int)) (! (= (iInv bits i) (and (<= (iLo bits) i) (< i (iHi bits)))) :pattern ((iInv bits i)) :qid prelude_i_inv :skolemid skolem_prelude_i_inv)))
(assert (forall ((x Int)) (! (has_type (I x) INT) :pattern ((has_type (I x) INT)) :qid prelude_has_type_int :skolemid skolem_prelude_has_type_int)))
(assert (forall ((x Int)) (! (=> (<= 0 x) (has_type (I x) NAT)) :pattern ((has_type (I x) NAT)) :qid prelude_has_type_nat :skolemid skolem_prelude_has_type_nat)))
(assert (forall ((bits Int) (x Int)) (! (=> (uInv bits x) (has_type (I x) (UINT bits))) :pattern ((has_type (I x) (UINT bits))) :qid prelude_has_type_uint :skolemid skolem_prelude_has_type_uint)))
(assert (forall ((bits Int) (x Int)) (! (=> (iInv bits x) (has_type (I x) (SINT bits))) :pattern ((has_type (I x) (SINT bits))) :qid prelude_has_type_sint :skolemid skolem_prelude_has_type_sint)))
(assert (forall ((x Poly)) (! (=> (has_type x NAT) (<= 0 (%I x))) :pattern ((has_type x NAT)) :qid prelude_unbox_int :skolemid skolem_prelude_unbox_int)))
(assert (forall ((bits Int) (x Poly)) (! (=> (has_type x (UINT bits)) (uInv bits (%I x))) :pattern ((has_type x (UINT bits))) :qid prelude_unbox_uint :skolemid skolem_prelude_unbox_uint)))
(assert (forall ((bits Int) (x Poly)) (! (=> (has_type x (SINT bits)) (iInv bits (%I x))) :pattern ((has_type x (SINT bits))) :qid prelude_unbox_sint :skolemid skolem_prelude_unbox_sint)))
(declare-fun Add (Int Int) Int)
(declare-fun Sub (Int Int) Int)
(declare-fun Mul (Int Int) Int)
(declare-fun EucDiv (Int Int) Int)
(declare-fun EucMod (Int Int) Int)
(assert (forall ((x Int) (y Int)) (! (= (Add x y) (+ x y)) :pattern ((Add x y)) :qid prelude_add :skolemid skolem_prelude_add)))
(assert (forall ((x Int) (y Int)) (! (= (Sub x y) (- x y)) :pattern ((Sub x y)) :qid prelude_sub :skolemid skolem_prelude_sub)))
(assert (forall ((x Int) (y Int)) (! (= (Mul x y) (* x y)) :pattern ((Mul x y)) :qid prelude_mul :skolemid skolem_prelude_mul)))
(assert (forall ((x Int) (y Int)) (! (= (EucDiv x y) (div x y)) :pattern ((EucDiv x y)) :qid prelude_eucdiv :skolemid skolem_prelude_eucdiv)))
(assert (forall ((x Int) (y Int)) (! (= (EucMod x y) (mod x y)) :pattern ((EucMod x y)) :qid prelude_eucmod :skolemid skolem_prelude_eucmod)))
(assert (forall ((x Int) (y Int)) (! (=> (and (<= 0 x) (<= 0 y)) (<= 0 (Mul x y))) :pattern ((Mul x y)) :qid prelude_mul_nats :skolemid skolem_prelude_mul_nats)))
(assert (forall ((x Int) (y Int)) (! (=> (and (<= 0 x) (< 0 y)) (and (<= 0 (EucDiv x y)) (<= (EucDiv x y) x))) :pattern ((EucDiv x y)) :qid prelude_div_unsigned_in_bounds :skolemid skolem_prelude_div_unsigned_in_bounds)))
(assert (forall ((x Int) (y Int)) (! (=> (and (<= 0 x) (< 0 y)) (and (<= 0 (EucMod x y)) (< (EucMod x y) y))) :pattern ((EucMod x y)) :qid prelude_mod_unsigned_in_bounds :skolemid skolem_prelude_mod_unsigned_in_bounds)))
(assert (forall ((x Poly)) (! (=> (has_type x CHAR) (= x (C (%C x)))) :pattern ((has_type x CHAR)) :qid prelude_box_unbox_char :skolemid skolem_prelude_box_unbox_char)))
(assert (forall ((x Char)) (! (= x (%C (C x))) :pattern ((C x)) :qid prelude_unbox_box_char :skolemid skolem_prelude_unbox_box_char)))
(assert (forall ((x Char)) (! (has_type (C x) CHAR) :pattern ((has_type (C x) CHAR)) :qid prelude_has_type_char :skolemid skolem_prelude_has_type_char)))
(assert (forall ((x Int)) (! (=> (and (<= 0 x) (< x (uHi 32))) (= x (char%to_unicode (char%from_unicode x)))) :pattern ((char%from_unicode x)) :qid prelude_char_injective :skolemid skolem_prelude_char_injective)))
(assert (forall ((c Char)) (! (and (<= 0 (char%to_unicode c)) (< (char%to_unicode c) (uHi 32))) :pattern ((char%to_unicode c)) :qid prelude_to_unicode_bounds :skolemid skolem_prelude_to_unicode_bounds)))
(declare-fun height (Poly) Height)
(declare-fun height_lt (Height Height) Bool)
(assert (forall ((x Height) (y Height)) (! (= (height_lt x y) (and ((_ partial-order 0) x y) (not (= x y)))) :pattern ((height_lt x y)) :qid prelude_height_lt :skolemid skolem_prelude_height_lt)))
(declare-fun fun_from_recursive_field (Poly) Poly)
(declare-fun check_decrease_int (Int Int Bool) Bool)
(assert (forall ((cur Int) (prev Int) (otherwise Bool)) (! (= (check_decrease_int cur prev otherwise) (or (and (<= 0 cur) (< cur prev)) (and (= cur prev) otherwise))) :pattern ((check_decrease_int cur prev otherwise)) :qid prelude_check_decrease_int :skolemid skolem_prelude_check_decrease_int)))
(declare-fun check_decrease_height (Poly Poly Bool) Bool)
(assert (forall ((cur Poly) (prev Poly) (otherwise Bool)) (! (= (check_decrease_height cur prev otherwise) (or (height_lt (height cur) (height prev)) (and (= (height cur) (height prev)) otherwise))) :pattern ((check_decrease_height cur prev otherwise)) :qid prelude_check_decrease_height :skolemid skolem_prelude_check_decrease_height)))
(declare-fun uintxor (Int Poly Poly) Int)
(declare-fun uintand (Int Poly Poly) Int)
(declare-fun uintor (Int Poly Poly) Int)
(declare-fun uintshr (Int Poly Poly) Int)
(declare-fun uintshl (Int Poly Poly) Int)
(declare-fun uintnot (Int Poly) Int)
(declare-fun singular_mod (Int Int) Int)
(assert (forall ((x Int) (y Int)) (! (=> (not (= y 0)) (= (EucMod x y) (singular_mod x y))) :pattern ((singular_mod x y)) :qid prelude_singularmod :skolemid skolem_prelude_singularmod)))
(declare-fun closure_req (Type Dcr Type Poly Poly) Bool)
(declare-fun closure_ens (Type Dcr Type Poly Poly Poly) Bool)
(set-info :comment ";; MODULE 'root module'")
(set-info :comment ";; Fuel")
(assert true)
(set-info :comment ";; Datatypes")
(declare-datatypes ((tuple%0. 0)) (((tuple%0./tuple%0 ))))
(declare-const TYPE%tuple%0. Type)
(declare-fun Poly%tuple%0. (tuple%0.) Poly)
(declare-fun %Poly%tuple%0. (Poly) tuple%0.)
(assert (forall ((x@ tuple%0.)) (! (= x@ (%Poly%tuple%0. (Poly%tuple%0. x@))) :pattern ((Poly%tuple%0. x@)) :qid internal_crate__tuple__0_box_axiom_definition :skolemid skolem_internal_crate__tuple__0_box_axiom_definition)))
(assert (forall ((x@ Poly)) (! (=> (has_type x@ TYPE%tuple%0.) (= x@ (Poly%tuple%0. (%Poly%tuple%0. x@)))) :pattern ((has_type x@ TYPE%tuple%0.)) :qid internal_crate__tuple__0_unbox_axiom_definition :skolemid skolem_internal_crate__tuple__0_unbox_axiom_definition)))
(assert (forall ((x@ tuple%0.)) (! (has_type (Poly%tuple%0. x@) TYPE%tuple%0.) :pattern ((has_type (Poly%tuple%0. x@) TYPE%tuple%0.)) :qid internal_crate__tuple__0_has_type_always_definition :skolemid skolem_internal_crate__tuple__0_has_type_always_definition)))
(set-info :comment ";; Function-Specs main::nl_basics::lemma_mul_is_associative")
(declare-fun ens%main!nl_basics.lemma_mul_is_associative. (Int Int Int) Bool)
(assert (forall ((x~2@ Int) (y~4@ Int) (z~6@ Int)) (! (= (ens%main!nl_basics.lemma_mul_is_associative. x~2@ y~4@ z~6@) (= (Mul x~2@ (Mul y~4@ z~6@)) (Mul (Mul x~2@ y~4@) z~6@))) :pattern ((ens%main!nl_basics.lemma_mul_is_associative. x~2@ y~4@ z~6@)) :qid internal_ens__main!nl_basics.lemma_mul_is_associative._definition :skolemid skolem_internal_ens__main!nl_basics.lemma_mul_is_associative._definition)))
(set-info :comment ";; Function-Specs main::nl_basics::lemma_mul_is_commutative")
(declare-fun ens%main!nl_basics.lemma_mul_is_commutative. (Int Int) Bool)
(assert (forall ((x~2@ Int) (y~4@ Int)) (! (= (ens%main!nl_basics.lemma_mul_is_commutative. x~2@ y~4@) (= (Mul x~2@ y~4@) (Mul y~4@ x~2@))) :pattern ((ens%main!nl_basics.lemma_mul_is_commutative. x~2@ y~4@)) :qid internal_ens__main!nl_basics.lemma_mul_is_commutative._definition :skolemid skolem_internal_ens__main!nl_basics.lemma_mul_is_commutative._definition)))
(set-info :comment ";; Function-Def main::inst_0")
(set-info :comment ";; mariposa_data/v_nl//13478540114505021424/nlqi_verus/src/main.rs:7:1: 26:40 (#0)")
(push 1)
(declare-const a0~2@ Int)
(declare-const b0~4@ Int)
(declare-const c0~6@ Int)
(declare-const d0~8@ Int)
(declare-const a1~10@ Int)
(declare-const b1~12@ Int)
(declare-const c1~14@ Int)
(declare-const d1~16@ Int)
(declare-const a2~18@ Int)
(declare-const b2~20@ Int)
(declare-const c2~22@ Int)
(declare-const d2~24@ Int)
(declare-const a3~26@ Int)
(declare-const b3~28@ Int)
(declare-const c3~30@ Int)
(declare-const d3~32@ Int)
(declare-const a4~34@ Int)
(declare-const b4~36@ Int)
(declare-const c4~38@ Int)
(declare-const d4~40@ Int)
(declare-const a5~42@ Int)
(declare-const b5~44@ Int)
(declare-const c5~46@ Int)
(declare-const d5~48@ Int)
(declare-const a6~50@ Int)
(declare-const b6~52@ Int)
(declare-const c6~54@ Int)
(declare-const d6~56@ Int)
(declare-const a7~58@ Int)
(declare-const b7~60@ Int)
(declare-const c7~62@ Int)
(declare-const d7~64@ Int)
(declare-const a8~66@ Int)
(declare-const b8~68@ Int)
(declare-const c8~70@ Int)
(declare-const d8~72@ Int)
(declare-const a9~74@ Int)
(declare-const b9~76@ Int)
(declare-const c9~78@ Int)
(declare-const d9~80@ Int)
(declare-const a10~82@ Int)
(declare-const b10~84@ Int)
(declare-const c10~86@ Int)
(declare-const d10~88@ Int)
(declare-const a11~90@ Int)
(declare-const b11~92@ Int)
(declare-const c11~94@ Int)
(declare-const d11~96@ Int)
(declare-const a12~98@ Int)
(declare-const b12~100@ Int)
(declare-const c12~102@ Int)
(declare-const d12~104@ Int)
(declare-const a13~106@ Int)
(declare-const b13~108@ Int)
(declare-const c13~110@ Int)
(declare-const d13~112@ Int)
(declare-const a14~114@ Int)
(declare-const b14~116@ Int)
(declare-const c14~118@ Int)
(declare-const d14~120@ Int)
(declare-const a15~122@ Int)
(declare-const b15~124@ Int)
(declare-const c15~126@ Int)
(declare-const d15~128@ Int)
(declare-const a16~130@ Int)
(declare-const b16~132@ Int)
(declare-const c16~134@ Int)
(declare-const d16~136@ Int)
(declare-const a17~138@ Int)
(declare-const b17~140@ Int)
(declare-const c17~142@ Int)
(declare-const d17~144@ Int)
(declare-const a18~146@ Int)
(declare-const b18~148@ Int)
(declare-const c18~150@ Int)
(declare-const d18~152@ Int)
(declare-const a19~154@ Int)
(declare-const b19~156@ Int)
(declare-const c19~158@ Int)
(declare-const d19~160@ Int)
(declare-const tmp%1@ Int)
(declare-const tmp%2@ Int)
(declare-const tmp%3@ Int)
(declare-const tmp%4@ Int)
(declare-const tmp%5@ Int)
(declare-const tmp%6@ Int)
(declare-const tmp%7@ Int)
(declare-const tmp%8@ Int)
(declare-const tmp%9@ Int)
(declare-const tmp%10@ Int)
(declare-const tmp%11@ Int)
(declare-const tmp%12@ Int)
(declare-const tmp%13@ Int)
(declare-const tmp%14@ Int)
(declare-const tmp%15@ Int)
(declare-const tmp%16@ Int)
(declare-const tmp%17@ Int)
(declare-const tmp%18@ Int)
(declare-const temp_0_0~297@ Int)
(declare-const temp_0_1~434@ Int)
(declare-const temp_1_0~587@ Int)
(declare-const temp_1_1~708@ Int)
(declare-const temp_2_0~969@ Int)
(declare-const temp_2_1~1090@ Int)
(declare-const temp_3_0~1295@ Int)
(declare-const temp_3_1~1448@ Int)
(declare-const temp_4_0~1605@ Int)
(declare-const temp_4_1~1726@ Int)
(declare-const temp_5_0~1895@ Int)
(declare-const temp_5_1~1984@ Int)
(declare-const temp_6_0~2101@ Int)
(declare-const temp_6_1~2190@ Int)
(declare-const temp_7_0~2275@ Int)
(declare-const temp_7_1~2332@ Int)
(declare-const temp_8_0~2489@ Int)
(declare-const temp_8_1~2618@ Int)
(declare-const temp_9_0~2771@ Int)
(declare-const temp_9_1~2884@ Int)
(declare-const temp_10_0~3041@ Int)
(declare-const temp_10_1~3170@ Int)
(declare-const temp_11_0~3327@ Int)
(declare-const temp_11_1~3448@ Int)
(declare-const temp_12_0~3667@ Int)
(declare-const temp_12_1~3836@ Int)
(declare-const temp_13_0~3997@ Int)
(declare-const temp_13_1~4110@ Int)
(assert fuel_defaults)
(set-info :comment ";; assertion failed")
(declare-const %%location_label%%0 Bool)
(set-info :comment ";; assertion failed")
(declare-const %%location_label%%1 Bool)
(set-info :comment ";; assertion failed")
(declare-const %%location_label%%2 Bool)
(set-info :comment ";; assertion failed")
(declare-const %%location_label%%3 Bool)
(set-info :comment ";; assertion failed")
(declare-const %%location_label%%4 Bool)
(set-info :comment ";; assertion failed")
(declare-const %%location_label%%5 Bool)
(set-info :comment ";; assertion failed")
(declare-const %%location_label%%6 Bool)
(set-info :comment ";; assertion failed")
(declare-const %%location_label%%7 Bool)
(set-info :comment ";; assertion failed")
(declare-const %%location_label%%8 Bool)
(set-info :comment ";; assertion failed")
(declare-const %%location_label%%9 Bool)
(set-info :comment ";; assertion failed")
(declare-const %%location_label%%10 Bool)
(set-info :comment ";; assertion failed")
(declare-const %%location_label%%11 Bool)
(set-info :comment ";; assertion failed")
(declare-const %%location_label%%12 Bool)
(set-info :comment ";; assertion failed")
(declare-const %%location_label%%13 Bool)
(declare-const %%query%% Bool)
(assert (=> %%query%% (not (=> (= temp_0_0~297@ (Sub (Mul (Mul (Mul (Mul a0~2@ a0~2@) (Mul b0~4@ b0~4@)) (Mul (Mul a0~2@ c0~6@) (Mul d0~8@ d0~8@))) (Add (Mul (Mul a0~2@ b0~4@) (Mul c0~6@ c0~6@)) (Sub (Add a0~2@ b0~4@) (Mul d0~8@ a0~2@)))) (Mul (Mul (Sub (Add d0~8@ a0~2@) (Sub d0~8@ c0~6@)) (Mul (Sub c0~6@ a0~2@) (Mul c0~6@ 59))) (Mul (Mul d0~8@ (Mul a0~2@ a0~2@)) (Sub (Sub a0~2@ b0~4@) (Mul b0~4@ d0~8@)))))) (=> (= temp_0_1~434@ (Sub (Mul (Mul (Mul (Mul a0~2@ a0~2@) (Mul b0~4@ b0~4@)) (Mul (Mul a0~2@ c0~6@) (Mul d0~8@ d0~8@))) (Add (Mul (Mul a0~2@ b0~4@) (Mul c0~6@ c0~6@)) (Sub (Add a0~2@ b0~4@) (Mul d0~8@ a0~2@)))) (Mul (Mul (Sub (Add d0~8@ a0~2@) (Sub d0~8@ c0~6@)) (Mul (Sub c0~6@ a0~2@) (Mul c0~6@ 59))) (Mul (Mul (Mul a0~2@ a0~2@) d0~8@) (Sub (Sub a0~2@ b0~4@) (Mul b0~4@ d0~8@)))))) (and (=> (= tmp%1@ (Mul a0~2@ a0~2@)) (=> (ens%main!nl_basics.lemma_mul_is_commutative. d0~8@ tmp%1@) (=> %%location_label%%0 (= temp_0_0~297@ temp_0_1~434@)))) (=> (= temp_0_0~297@ temp_0_1~434@) (=> (= temp_1_0~587@ (Mul (Mul (Mul (Mul (Mul c1~14@ b1~12@) c1~14@) (Mul (Add b1~12@ c1~14@) (Sub b1~12@ b1~12@))) (Add b1~12@ (Mul (Mul b1~12@ a1~10@) (Sub b1~12@ b1~12@)))) (Mul (Add (Mul (Mul a1~10@ b1~12@) (Sub c1~14@ b1~12@)) (Mul (Add d1~16@ c1~14@) (Mul a1~10@ a1~10@))) (Mul (Mul c1~14@ (Mul d1~16@ 4)) (Sub (Mul a1~10@ d1~16@) (Mul b1~12@ a1~10@)))))) (=> (= temp_1_1~708@ (Mul (Mul (Add (Mul (Mul a1~10@ b1~12@) (Sub c1~14@ b1~12@)) (Mul (Add d1~16@ c1~14@) (Mul a1~10@ a1~10@))) (Mul (Mul c1~14@ (Mul d1~16@ 4)) (Sub (Mul a1~10@ d1~16@) (Mul b1~12@ a1~10@)))) (Mul (Mul (Mul (Mul c1~14@ b1~12@) c1~14@) (Mul (Add b1~12@ c1~14@) (Sub b1~12@ b1~12@))) (Add b1~12@ (Mul (Mul b1~12@ a1~10@) (Sub b1~12@ b1~12@)))))) (and (=> (= tmp%2@ (Mul (Mul (Mul (Mul c1~14@ b1~12@) c1~14@) (Mul (Add b1~12@ c1~14@) (Sub b1~12@ b1~12@))) (Add b1~12@ (Mul (Mul b1~12@ a1~10@) (Sub b1~12@ b1~12@))))) (=> (= tmp%3@ (Mul (Add (Mul (Mul a1~10@ b1~12@) (Sub c1~14@ b1~12@)) (Mul (Add d1~16@ c1~14@) (Mul a1~10@ a1~10@))) (Mul (Mul c1~14@ (Mul d1~16@ 4)) (Sub (Mul a1~10@ d1~16@) (Mul b1~12@ a1~10@))))) (=> (ens%main!nl_basics.lemma_mul_is_commutative. tmp%2@ tmp%3@) (=> %%location_label%%1 (= temp_1_0~587@ temp_1_1~708@))))) (=> (= temp_1_0~587@ temp_1_1~708@) (=> (= temp_2_0~969@ (Mul (Add (Mul (Mul (Mul b2~20@ d2~24@) (Add d2~24@ d2~24@)) (Mul (Mul b2~20@ d2~24@) (Mul d2~24@ d2~24@))) (Mul (Mul (Mul b2~20@ 89) (Mul c2~22@ b2~20@)) b2~20@)) (Mul (Mul (Add (Sub c2~22@ b2~20@) (Mul c2~22@ a2~18@)) (Sub c2~22@ b2~20@)) (Mul (Mul (Sub b2~20@ b2~20@) (Mul c2~22@ b2~20@)) (Mul (Mul a2~18@ a2~18@) (Add c2~22@ a2~18@)))))) (=> (= temp_2_1~1090@ (Mul (Add (Mul (Mul (Mul b2~20@ d2~24@) (Mul d2~24@ d2~24@)) (Mul (Mul b2~20@ d2~24@) (Add d2~24@ d2~24@))) (Mul (Mul (Mul b2~20@ 89) (Mul c2~22@ b2~20@)) b2~20@)) (Mul (Mul (Add (Sub c2~22@ b2~20@) (Mul c2~22@ a2~18@)) (Sub c2~22@ b2~20@)) (Mul (Mul (Sub b2~20@ b2~20@) (Mul c2~22@ b2~20@)) (Mul (Mul a2~18@ a2~18@) (Add c2~22@ a2~18@)))))) (and (=> (= tmp%4@ (Mul (Mul b2~20@ d2~24@) (Add d2~24@ d2~24@))) (=> (= tmp%5@ (Mul (Mul b2~20@ d2~24@) (Mul d2~24@ d2~24@))) (=> (ens%main!nl_basics.lemma_mul_is_commutative. tmp%4@ tmp%5@) (=> %%location_label%%2 (= temp_2_0~969@ temp_2_1~1090@))))) (=> (= temp_2_0~969@ temp_2_1~1090@) (=> (= temp_3_0~1295@ (Sub (Mul (Mul c3~30@ (Mul (Mul d3~32@ d3~32@) (Mul d3~32@ b3~28@))) (Mul (Mul (Mul c3~30@ d3~32@) (Mul d3~32@ a3~26@)) (Mul (Mul 6 a3~26@) (Mul 28 a3~26@)))) (Mul (Mul (Mul (Add d3~32@ a3~26@) (Mul a3~26@ b3~28@)) (Mul (Mul a3~26@ a3~26@) (Mul 49 b3~28@))) (Add (Mul (Mul d3~32@ d3~32@) (Sub a3~26@ b3~28@)) (Sub (Mul c3~30@ c3~30@) (Mul c3~30@ c3~30@)))))) (=> (= temp_3_1~1448@ (Sub (Mul (Mul c3~30@ (Mul (Mul d3~32@ d3~32@) (Mul d3~32@ b3~28@))) (Mul (Mul (Mul c3~30@ d3~32@) (Mul d3~32@ a3~26@)) (Mul (Mul 6 a3~26@) (Mul 28 a3~26@)))) (Mul (Mul (Mul (Add d3~32@ a3~26@) (Mul a3~26@ b3~28@)) (Mul (Mul a3~26@ a3~26@) (Mul 49 b3~28@))) (Add (Mul (Sub a3~26@ b3~28@) (Mul d3~32@ d3~32@)) (Sub (Mul c3~30@ c3~30@) (Mul c3~30@ c3~30@)))))) (and (=> (= tmp%6@ (Mul d3~32@ d3~32@)) (=> (= tmp%7@ (Sub a3~26@ b3~28@)) (=> (ens%main!nl_basics.lemma_mul_is_commutative. tmp%6@ tmp%7@) (=> %%location_label%%3 (= temp_3_0~1295@ temp_3_1~1448@))))) (=> (= temp_3_0~1295@ temp_3_1~1448@) (=> (= temp_4_0~1605@ (Add (Mul (Mul (Mul (Add b4~36@ c4~38@) (Mul a4~34@ c4~38@)) (Mul (Mul d4~40@ d4~40@) c4~38@)) (Mul (Add (Mul a4~34@ a4~34@) (Mul b4~36@ b4~36@)) (Mul (Mul a4~34@ d4~40@) (Mul a4~34@ d4~40@)))) (Mul (Mul (Mul (Mul c4~38@ c4~38@) (Mul c4~38@ c4~38@)) (Mul (Sub b4~36@ c4~38@) (Mul c4~38@ c4~38@))) (Mul (Mul (Mul a4~34@ b4~36@) c4~38@) (Mul (Mul c4~38@ a4~34@) (Mul d4~40@ a4~34@)))))) (=> (= temp_4_1~1726@ (Add (Mul (Mul (Add (Mul a4~34@ a4~34@) (Mul b4~36@ b4~36@)) (Mul (Mul a4~34@ d4~40@) (Mul a4~34@ d4~40@))) (Mul (Mul (Add b4~36@ c4~38@) (Mul a4~34@ c4~38@)) (Mul (Mul d4~40@ d4~40@) c4~38@))) (Mul (Mul (Mul (Mul c4~38@ c4~38@) (Mul c4~38@ c4~38@)) (Mul (Sub b4~36@ c4~38@) (Mul c4~38@ c4~38@))) (Mul (Mul (Mul a4~34@ b4~36@) c4~38@) (Mul (Mul c4~38@ a4~34@) (Mul d4~40@ a4~34@)))))) (and (=> (= tmp%8@ (Mul (Mul (Add b4~36@ c4~38@) (Mul a4~34@ c4~38@)) (Mul (Mul d4~40@ d4~40@) c4~38@))) (=> (= tmp%9@ (Mul (Add (Mul a4~34@ a4~34@) (Mul b4~36@ b4~36@)) (Mul (Mul a4~34@ d4~40@) (Mul a4~34@ d4~40@)))) (=> (ens%main!nl_basics.lemma_mul_is_commutative. tmp%8@ tmp%9@) (=> %%location_label%%4 (= temp_4_0~1605@ temp_4_1~1726@))))) (=> (= temp_4_0~1605@ temp_4_1~1726@) (=> (= temp_5_0~1895@ (Mul (Mul (Mul (Mul (Mul d5~48@ a5~42@) (Mul d5~48@ b5~44@)) (Mul (Mul a5~42@ b5~44@) (Mul b5~44@ d5~48@))) (Sub d5~48@ (Mul (Mul d5~48@ b5~44@) (Mul d5~48@ d5~48@)))) (Mul (Mul a5~42@ (Mul c5~46@ (Mul d5~48@ c5~46@))) (Add c5~46@ (Mul (Sub b5~44@ d5~48@) (Sub d5~48@ d5~48@)))))) (=> (= temp_5_1~1984@ (Mul (Mul (Mul (Mul (Mul a5~42@ d5~48@) (Mul d5~48@ b5~44@)) (Mul (Mul a5~42@ b5~44@) (Mul b5~44@ d5~48@))) (Sub d5~48@ (Mul (Mul d5~48@ b5~44@) (Mul d5~48@ d5~48@)))) (Mul (Mul a5~42@ (Mul c5~46@ (Mul d5~48@ c5~46@))) (Add c5~46@ (Mul (Sub b5~44@ d5~48@) (Sub d5~48@ d5~48@)))))) (and (=> (ens%main!nl_basics.lemma_mul_is_commutative. d5~48@ a5~42@) (=> %%location_label%%5 (= temp_5_0~1895@ temp_5_1~1984@))) (=> (= temp_5_0~1895@ temp_5_1~1984@) (=> (= temp_6_0~2101@ (Mul (Mul (Mul (Mul (Mul a6~50@ d6~56@) (Sub c6~54@ a6~50@)) (Add (Mul a6~50@ d6~56@) (Mul d6~56@ a6~50@))) (Mul d6~56@ (Sub (Mul a6~50@ c6~54@) (Mul b6~52@ b6~52@)))) (Mul (Mul (Sub (Mul a6~50@ c6~54@) (Mul d6~56@ a6~50@)) (Mul (Mul c6~54@ a6~50@) (Mul d6~56@ a6~50@))) a6~50@))) (=> (= temp_6_1~2190@ (Mul (Mul (Mul (Mul (Mul a6~50@ d6~56@) (Sub c6~54@ a6~50@)) (Add (Mul a6~50@ d6~56@) (Mul a6~50@ d6~56@))) (Mul d6~56@ (Sub (Mul a6~50@ c6~54@) (Mul b6~52@ b6~52@)))) (Mul (Mul (Sub (Mul a6~50@ c6~54@) (Mul d6~56@ a6~50@)) (Mul (Mul c6~54@ a6~50@) (Mul d6~56@ a6~50@))) a6~50@))) (and (=> (ens%main!nl_basics.lemma_mul_is_commutative. d6~56@ a6~50@) (=> %%location_label%%6 (= temp_6_0~2101@ temp_6_1~2190@))) (=> (= temp_6_0~2101@ temp_6_1~2190@) (=> (= temp_7_0~2275@ (Mul b7~60@ (Mul (Mul (Add (Mul b7~60@ a7~58@) (Mul b7~60@ b7~60@)) (Mul (Mul c7~62@ c7~62@) (Mul b7~60@ a7~58@))) (Mul c7~62@ (Mul (Mul a7~58@ c7~62@) (Mul d7~64@ d7~64@)))))) (=> (= temp_7_1~2332@ (Mul b7~60@ (Mul (Mul (Add (Mul b7~60@ a7~58@) (Mul b7~60@ b7~60@)) (Mul (Mul c7~62@ c7~62@) (Mul b7~60@ a7~58@))) (Mul c7~62@ (Mul (Mul a7~58@ c7~62@) (Mul d7~64@ d7~64@)))))) (and (=> (ens%main!nl_basics.lemma_mul_is_commutative. d7~64@ d7~64@) (=> %%location_label%%7 (= temp_7_0~2275@ temp_7_1~2332@))) (=> (= temp_7_0~2275@ temp_7_1~2332@) (=> (= temp_8_0~2489@ (Sub (Mul (Mul b8~68@ (Mul (Sub a8~66@ b8~68@) (Mul 71 a8~66@))) (Mul (Mul (Mul c8~70@ c8~70@) (Mul c8~70@ d8~72@)) (Sub (Mul b8~68@ b8~68@) (Add b8~68@ c8~70@)))) (Sub (Mul (Mul (Mul c8~70@ a8~66@) (Mul a8~66@ b8~68@)) (Mul (Mul a8~66@ d8~72@) (Sub d8~72@ b8~68@))) (Mul (Mul (Mul c8~70@ d8~72@) (Mul a8~66@ a8~66@)) (Mul (Mul c8~70@ a8~66@) (Mul c8~70@ c8~70@)))))) (=> (= temp_8_1~2618@ (Sub (Mul (Mul b8~68@ (Mul (Sub a8~66@ b8~68@) (Mul a8~66@ 71))) (Mul (Mul (Mul c8~70@ c8~70@) (Mul c8~70@ d8~72@)) (Sub (Mul b8~68@ b8~68@) (Add b8~68@ c8~70@)))) (Sub (Mul (Mul (Mul c8~70@ a8~66@) (Mul a8~66@ b8~68@)) (Mul (Mul a8~66@ d8~72@) (Sub d8~72@ b8~68@))) (Mul (Mul (Mul c8~70@ d8~72@) (Mul a8~66@ a8~66@)) (Mul (Mul c8~70@ a8~66@) (Mul c8~70@ c8~70@)))))) (and (=> (ens%main!nl_basics.lemma_mul_is_commutative. 71 a8~66@) (=> %%location_label%%8 (= temp_8_0~2489@ temp_8_1~2618@))) (=> (= temp_8_0~2489@ temp_8_1~2618@) (=> (= temp_9_0~2771@ (Mul (Mul (Sub (Mul (Mul a9~74@ a9~74@) (Mul c9~78@ a9~74@)) (Mul (Mul a9~74@ d9~80@) (Mul a9~74@ d9~80@))) (Sub (Mul (Sub c9~78@ d9~80@) (Mul b9~76@ c9~78@)) (Mul (Mul d9~80@ b9~76@) (Mul d9~80@ b9~76@)))) (Mul (Mul (Mul (Sub a9~74@ d9~80@) (Mul d9~80@ d9~80@)) (Mul (Mul b9~76@ a9~74@) d9~80@)) (Mul (Mul d9~80@ d9~80@) (Mul c9~78@ (Mul d9~80@ d9~80@)))))) (=> (= temp_9_1~2884@ (Mul (Mul (Sub (Mul (Mul a9~74@ a9~74@) (Mul c9~78@ a9~74@)) (Mul (Mul a9~74@ d9~80@) (Mul a9~74@ d9~80@))) (Sub (Mul (Sub c9~78@ d9~80@) (Mul b9~76@ c9~78@)) (Mul (Mul b9~76@ d9~80@) (Mul d9~80@ b9~76@)))) (Mul (Mul (Mul (Sub a9~74@ d9~80@) (Mul d9~80@ d9~80@)) (Mul (Mul b9~76@ a9~74@) d9~80@)) (Mul (Mul d9~80@ d9~80@) (Mul c9~78@ (Mul d9~80@ d9~80@)))))) (and (=> (ens%main!nl_basics.lemma_mul_is_commutative. d9~80@ b9~76@) (=> %%location_label%%9 (= temp_9_0~2771@ temp_9_1~2884@))) (=> (= temp_9_0~2771@ temp_9_1~2884@) (=> (= temp_10_0~3041@ (Mul (Mul (Mul (Mul (Sub a10~82@ b10~84@) (Mul a10~82@ b10~84@)) (Mul (Mul c10~86@ b10~84@) (Mul a10~82@ d10~88@))) (Mul (Mul (Mul d10~88@ c10~86@) (Mul c10~86@ d10~88@)) (Mul (Sub c10~86@ d10~88@) (Mul c10~86@ b10~84@)))) (Mul (Mul (Sub (Mul b10~84@ a10~82@) (Mul a10~82@ a10~82@)) (Add (Mul d10~88@ c10~86@) (Mul d10~88@ d10~88@))) (Mul (Mul (Add a10~82@ a10~82@) (Mul b10~84@ c10~86@)) (Mul (Mul c10~86@ a10~82@) (Mul d10~88@ c10~86@)))))) (=> (= temp_10_1~3170@ (Mul (Mul (Mul (Mul (Mul a10~82@ b10~84@) (Sub a10~82@ b10~84@)) (Mul (Mul c10~86@ b10~84@) (Mul a10~82@ d10~88@))) (Mul (Mul (Mul d10~88@ c10~86@) (Mul c10~86@ d10~88@)) (Mul (Sub c10~86@ d10~88@) (Mul c10~86@ b10~84@)))) (Mul (Mul (Sub (Mul b10~84@ a10~82@) (Mul a10~82@ a10~82@)) (Add (Mul d10~88@ c10~86@) (Mul d10~88@ d10~88@))) (Mul (Mul (Add a10~82@ a10~82@) (Mul b10~84@ c10~86@)) (Mul (Mul c10~86@ a10~82@) (Mul d10~88@ c10~86@)))))) (and (=> (= tmp%10@ (Sub a10~82@ b10~84@)) (=> (= tmp%11@ (Mul a10~82@ b10~84@)) (=> (ens%main!nl_basics.lemma_mul_is_commutative. tmp%10@ tmp%11@) (=> %%location_label%%10 (= temp_10_0~3041@ temp_10_1~3170@))))) (=> (= temp_10_0~3041@ temp_10_1~3170@) (=> (= temp_11_0~3327@ (Mul (Mul (Mul (Mul (Mul b11~92@ d11~96@) (Mul c11~94@ a11~90@)) (Mul (Mul b11~92@ b11~92@) (Add c11~94@ a11~90@))) (Mul (Mul (Mul d11~96@ b11~92@) (Mul c11~94@ c11~94@)) (Add (Mul c11~94@ d11~96@) (Mul d11~96@ c11~94@)))) (Add (Mul (Mul (Mul b11~92@ b11~92@) (Sub d11~96@ a11~90@)) (Mul b11~92@ (Sub b11~92@ b11~92@))) (Mul (Mul (Mul c11~94@ a11~90@) (Mul d11~96@ c11~94@)) (Mul b11~92@ (Mul b11~92@ b11~92@)))))) (=> (= temp_11_1~3448@ (Mul (Mul (Mul (Mul (Mul (Mul b11~92@ d11~96@) (Mul c11~94@ a11~90@)) (Mul b11~92@ b11~92@)) (Add c11~94@ a11~90@)) (Mul (Mul (Mul d11~96@ b11~92@) (Mul c11~94@ c11~94@)) (Add (Mul c11~94@ d11~96@) (Mul d11~96@ c11~94@)))) (Add (Mul (Mul (Mul b11~92@ b11~92@) (Sub d11~96@ a11~90@)) (Mul b11~92@ (Sub b11~92@ b11~92@))) (Mul (Mul (Mul c11~94@ a11~90@) (Mul d11~96@ c11~94@)) (Mul b11~92@ (Mul b11~92@ b11~92@)))))) (and (=> (= tmp%12@ (Mul (Mul b11~92@ d11~96@) (Mul c11~94@ a11~90@))) (=> (= tmp%13@ (Mul b11~92@ b11~92@)) (=> (= tmp%14@ (Add c11~94@ a11~90@)) (=> (ens%main!nl_basics.lemma_mul_is_associative. tmp%12@ tmp%13@ tmp%14@) (=> %%location_label%%11 (= temp_11_0~3327@ temp_11_1~3448@)))))) (=> (= temp_11_0~3327@ temp_11_1~3448@) (=> (= temp_12_0~3667@ (Mul (Add (Mul (Mul c12~102@ (Add c12~102@ a12~98@)) (Mul (Add d12~104@ c12~102@) (Add c12~102@ b12~100@))) (Sub (Mul (Mul c12~102@ 31) (Mul 40 a12~98@)) (Mul (Mul 86 a12~98@) (Mul c12~102@ b12~100@)))) (Mul (Mul (Mul (Mul d12~104@ a12~98@) b12~100@) (Mul (Add d12~104@ c12~102@) (Add a12~98@ a12~98@))) (Mul (Mul (Sub c12~102@ 5) (Mul d12~104@ a12~98@)) (Mul (Mul d12~104@ c12~102@) (Mul b12~100@ a12~98@)))))) (=> (= temp_12_1~3836@ (Mul (Add (Mul (Mul c12~102@ (Add c12~102@ a12~98@)) (Mul (Add d12~104@ c12~102@) (Add c12~102@ b12~100@))) (Sub (Mul (Mul c12~102@ 31) (Mul 40 a12~98@)) (Mul (Mul c12~102@ b12~100@) (Mul 86 a12~98@)))) (Mul (Mul (Mul (Mul d12~104@ a12~98@) b12~100@) (Mul (Add d12~104@ c12~102@) (Add a12~98@ a12~98@))) (Mul (Mul (Sub c12~102@ 5) (Mul d12~104@ a12~98@)) (Mul (Mul d12~104@ c12~102@) (Mul b12~100@ a12~98@)))))) (and (=> (= tmp%15@ (Mul 86 a12~98@)) (=> (= tmp%16@ (Mul c12~102@ b12~100@)) (=> (ens%main!nl_basics.lemma_mul_is_commutative. tmp%15@ tmp%16@) (=> %%location_label%%12 (= temp_12_0~3667@ temp_12_1~3836@))))) (=> (= temp_12_0~3667@ temp_12_1~3836@) (=> (= temp_13_0~3997@ (Mul (Mul (Mul (Mul (Mul b13~108@ a13~106@) (Mul c13~110@ b13~108@)) (Mul (Mul a13~106@ b13~108@) (Mul a13~106@ d13~112@))) (Mul (Mul (Mul a13~106@ b13~108@) c13~110@) (Mul (Sub d13~112@ c13~110@) (Mul a13~106@ d13~112@)))) (Mul (Add (Mul (Mul a13~106@ c13~110@) a13~106@) (Mul (Mul d13~112@ a13~106@) (Mul c13~110@ d13~112@))) (Mul (Mul d13~112@ a13~106@) (Mul (Mul a13~106@ c13~110@) (Sub c13~110@ a13~106@)))))) (=> (= temp_13_1~4110@ (Mul (Mul (Mul (Mul (Mul b13~108@ a13~106@) (Mul c13~110@ b13~108@)) (Mul (Mul a13~106@ b13~108@) (Mul a13~106@ d13~112@))) (Mul (Mul a13~106@ b13~108@) (Mul c13~110@ (Mul (Sub d13~112@ c13~110@) (Mul a13~106@ d13~112@))))) (Mul (Add (Mul (Mul a13~106@ c13~110@) a13~106@) (Mul (Mul d13~112@ a13~106@) (Mul c13~110@ d13~112@))) (Mul (Mul d13~112@ a13~106@) (Mul (Mul a13~106@ c13~110@) (Sub c13~110@ a13~106@)))))) (=> (= tmp%17@ (Mul a13~106@ b13~108@)) (=> (= tmp%18@ (Mul (Sub d13~112@ c13~110@) (Mul a13~106@ d13~112@))) (=> (ens%main!nl_basics.lemma_mul_is_associative. tmp%17@ c13~110@ tmp%18@) (=> %%location_label%%13 (= temp_13_0~3997@ temp_13_1~4110@))))))))))))))))))))))))))))))))))))))))))))))))))))))))))))))
(assert %%query%%)
(check-sat)
